p tw 36 38
1 2
2 13
3 4
4 5
5 6
6 7
6 9
7 8
8 36
9 10
10 11
11 12
12 14
12 17
13 24
14 15
15 16
16 20
17 18
18 19
19 20
20 21
21 22
22 23
23 25
24 31
25 26
26 27
27 28
28 29
29 30
31 32
32 33
32 34
33 29
34 35
35 36
36 3
